Welcome to the CBC MILP Solver 
Version: 2.10.12 
Build Date: Aug 20 2024 

command line - /opt/homebrew/bin/cbc computational_data/real_data/lp/iris_trial_010_margin.lp seconds 10.0 solve solu computational_data/real_data/solutions/iris_trial_010_margin.sol (default strategy 1)
 CoinLpIO::readLp(): Maximization problem reformulated as minimization
Coin0009I Switching back to maximization to get correct duals etc
seconds was changed from 1e+100 to 10
Continuous objective value is 29.9342 - 0.00 seconds
Cgl0003I 0 fixed, 0 tightened bounds, 57 strengthened rows, 0 substitutions
Cgl0003I 0 fixed, 0 tightened bounds, 60 strengthened rows, 0 substitutions
Cgl0003I 0 fixed, 0 tightened bounds, 45 strengthened rows, 0 substitutions
Cgl0003I 0 fixed, 0 tightened bounds, 26 strengthened rows, 0 substitutions
Cgl0003I 0 fixed, 0 tightened bounds, 16 strengthened rows, 0 substitutions
Cgl0003I 0 fixed, 0 tightened bounds, 6 strengthened rows, 0 substitutions
Cgl0003I 0 fixed, 0 tightened bounds, 6 strengthened rows, 0 substitutions
Cgl0003I 0 fixed, 0 tightened bounds, 4 strengthened rows, 0 substitutions
Cgl0003I 0 fixed, 0 tightened bounds, 4 strengthened rows, 0 substitutions
Cgl0004I processed model has 65 rows, 35 columns (35 integer (34 of which binary)) and 548 elements
Cbc0038I Initial state - 20 integers unsatisfied sum - 3.82143
Cbc0038I Pass   1: suminf.    3.82143 (20) obj. 29.9342 iterations 5
Cbc0038I Pass   2: suminf.    0.00000 (0) obj. 29.0056 iterations 11
Cbc0038I Solution found of 29.0056
Cbc0038I Cleaned solution of 29.0056
Cbc0038I Before mini branch and bound, 14 integers at bound fixed and 0 continuous
Cbc0038I Full problem 65 rows 35 columns, reduced to 49 rows 21 columns
Cbc0038I Mini branch and bound did not improve solution (0.01 seconds)
Cbc0038I Round again with cutoff of 29.0985
Cbc0038I Reduced cost fixing fixed 4 variables on major pass 2
Cbc0038I Pass   3: suminf.    3.82143 (20) obj. 29.9342 iterations 0
Cbc0038I Pass   4: suminf.    0.14286 (1) obj. 29.8628 iterations 15
Cbc0038I Pass   5: suminf.    0.14286 (1) obj. 29.8628 iterations 2
Cbc0038I Pass   6: suminf.    0.09287 (1) obj. 29.0985 iterations 1
Cbc0038I Pass   7: suminf.    0.37858 (2) obj. 29.0985 iterations 4
Cbc0038I Pass   8: suminf.    0.37858 (2) obj. 29.0985 iterations 4
Cbc0038I Pass   9: suminf.    0.37858 (2) obj. 29.0985 iterations 3
Cbc0038I Pass  10: suminf.    0.37858 (2) obj. 29.0985 iterations 2
Cbc0038I Pass  11: suminf.    0.37858 (2) obj. 29.0985 iterations 6
Cbc0038I Pass  12: suminf.    0.37858 (2) obj. 29.0985 iterations 1
Cbc0038I Pass  13: suminf.    0.09287 (1) obj. 29.0985 iterations 1
Cbc0038I Pass  14: suminf.    0.14286 (1) obj. 29.8628 iterations 1
Cbc0038I Pass  15: suminf.    0.14286 (1) obj. 29.8628 iterations 2
Cbc0038I Pass  16: suminf.    0.14286 (1) obj. 29.8628 iterations 3
Cbc0038I Pass  17: suminf.    0.14286 (1) obj. 29.8628 iterations 3
Cbc0038I Pass  18: suminf.    0.09287 (1) obj. 29.0985 iterations 4
Cbc0038I Pass  19: suminf.    0.37858 (2) obj. 29.0985 iterations 3
Cbc0038I Pass  20: suminf.    0.37858 (2) obj. 29.0985 iterations 3
Cbc0038I Pass  21: suminf.    0.09287 (1) obj. 29.0985 iterations 1
Cbc0038I Pass  22: suminf.    0.14286 (1) obj. 29.8628 iterations 1
Cbc0038I Pass  23: suminf.    0.37858 (2) obj. 29.0985 iterations 19
Cbc0038I Pass  24: suminf.    0.14286 (1) obj. 29.8628 iterations 5
Cbc0038I Pass  25: suminf.    0.14286 (1) obj. 29.8628 iterations 1
Cbc0038I Pass  26: suminf.    0.14286 (1) obj. 29.8628 iterations 5
Cbc0038I Pass  27: suminf.    0.14286 (1) obj. 29.8628 iterations 4
Cbc0038I Pass  28: suminf.    0.09287 (1) obj. 29.0985 iterations 1
Cbc0038I Pass  29: suminf.    0.09287 (1) obj. 29.0985 iterations 2
Cbc0038I Pass  30: suminf.    0.09287 (1) obj. 29.0985 iterations 2
Cbc0038I Pass  31: suminf.    0.09287 (1) obj. 29.0985 iterations 2
Cbc0038I Pass  32: suminf.    0.09287 (1) obj. 29.0985 iterations 3
Cbc0038I No solution found this major pass
Cbc0038I Before mini branch and bound, 13 integers at bound fixed and 0 continuous
Cbc0038I Full problem 65 rows 35 columns, reduced to 49 rows 22 columns
Cbc0038I Mini branch and bound did not improve solution (0.01 seconds)
Cbc0038I After 0.01 seconds - Feasibility pump exiting with objective of 29.0056 - took 0.00 seconds
Cbc0012I Integer solution of 29.005633 found by feasibility pump after 0 iterations and 0 nodes (0.01 seconds)
Cbc0038I Full problem 65 rows 35 columns, reduced to 49 rows 21 columns
Cbc0031I 1 added rows had average density of 30
Cbc0013I At root node, 24 cuts changed objective from 29.934196 to 29.005633 in 1 passes
Cbc0014I Cut generator 0 (Probing) - 0 row cuts average 0.0 elements, 0 column cuts (0 active)  in 0.000 seconds - new frequency is -100
Cbc0014I Cut generator 1 (Gomory) - 10 row cuts average 29.1 elements, 0 column cuts (0 active)  in 0.000 seconds - new frequency is 1
Cbc0014I Cut generator 2 (Knapsack) - 0 row cuts average 0.0 elements, 0 column cuts (0 active)  in 0.000 seconds - new frequency is -100
Cbc0014I Cut generator 3 (Clique) - 0 row cuts average 0.0 elements, 0 column cuts (0 active)  in 0.000 seconds - new frequency is -100
Cbc0014I Cut generator 4 (MixedIntegerRounding2) - 0 row cuts average 0.0 elements, 0 column cuts (0 active)  in 0.000 seconds - new frequency is -100
Cbc0014I Cut generator 5 (FlowCover) - 0 row cuts average 0.0 elements, 0 column cuts (0 active)  in 0.000 seconds - new frequency is -100
Cbc0014I Cut generator 6 (TwoMirCuts) - 14 row cuts average 28.5 elements, 0 column cuts (0 active)  in 0.000 seconds - new frequency is -100
Cbc0001I Search completed - best objective 29.005633, took 0 iterations and 0 nodes (0.01 seconds)
Cbc0035I Maximum depth 0, 4 variables fixed on reduced cost
Cuts at root node changed objective from 29.9342 to 29.0056
Probing was tried 1 times and created 0 cuts of which 0 were active after adding rounds of cuts (0.000 seconds)
Gomory was tried 1 times and created 10 cuts of which 0 were active after adding rounds of cuts (0.000 seconds)
Knapsack was tried 1 times and created 0 cuts of which 0 were active after adding rounds of cuts (0.000 seconds)
Clique was tried 1 times and created 0 cuts of which 0 were active after adding rounds of cuts (0.000 seconds)
MixedIntegerRounding2 was tried 1 times and created 0 cuts of which 0 were active after adding rounds of cuts (0.000 seconds)
FlowCover was tried 1 times and created 0 cuts of which 0 were active after adding rounds of cuts (0.000 seconds)
TwoMirCuts was tried 1 times and created 14 cuts of which 0 were active after adding rounds of cuts (0.000 seconds)
ZeroHalf was tried 1 times and created 0 cuts of which 0 were active after adding rounds of cuts (0.000 seconds)

Result - Optimal solution found

Objective value:                29.00563300
Enumerated nodes:               0
Total iterations:               0
Time (CPU seconds):             0.01
Time (Wallclock seconds):       0.01

Total time (CPU seconds):       0.01   (Wallclock seconds):       0.01

